(set-info :smt-lib-version 2.6)
(set-logic UF)
(set-info :source |Benchmarks from the paper: "Extending Sledgehammer with SMT Solvers" by Jasmin Blanchette, Sascha Bohme, and Lawrence C. Paulson, CADE 2011.  Translated to SMT2 by Andrew Reynolds and Morgan Deters.|)
(set-info :category "industrial")
(set-info :status unsat)
(declare-sort S1 0)
(declare-sort S2 0)
(declare-sort S3 0)
(declare-sort S4 0)
(declare-sort S5 0)
(declare-sort S6 0)
(declare-sort S7 0)
(declare-sort S8 0)
(declare-sort S9 0)
(declare-sort S10 0)
(declare-sort S11 0)
(declare-sort S12 0)
(declare-sort S13 0)
(declare-sort S14 0)
(declare-sort S15 0)
(declare-sort S16 0)
(declare-sort S17 0)
(declare-sort S18 0)
(declare-sort S19 0)
(declare-sort S20 0)
(declare-sort S21 0)
(declare-sort S22 0)
(declare-sort S23 0)
(declare-sort S24 0)
(declare-sort S25 0)
(declare-sort S26 0)
(declare-sort S27 0)
(declare-sort S28 0)
(declare-sort S29 0)
(declare-sort S30 0)
(declare-sort S31 0)
(declare-sort S32 0)
(declare-sort S33 0)
(declare-fun f1 () S1)
(declare-fun f2 () S1)
(declare-fun f3 (S3 S2) S1)
(declare-fun f4 (S4 S3) S3)
(declare-fun f5 (S5 S2) S4)
(declare-fun f6 () S5)
(declare-fun f7 (S6 S3) S1)
(declare-fun f8 (S7 S2) S6)
(declare-fun f9 () S7)
(declare-fun f10 () S5)
(declare-fun f11 () S3)
(declare-fun f12 (S10 S9) S1)
(declare-fun f13 (S11 S8) S10)
(declare-fun f14 () S11)
(declare-fun f15 (S12 S13) S10)
(declare-fun f16 (S14 S9) S12)
(declare-fun f17 (S15 S16) S14)
(declare-fun f18 () S15)
(declare-fun f19 () S16)
(declare-fun f20 () S13)
(declare-fun f21 () S11)
(declare-fun f22 (S17 S3) S6)
(declare-fun f23 () S17)
(declare-fun f24 () S3)
(declare-fun f25 () S5)
(declare-fun f26 (S18 S11) S2)
(declare-fun f27 (S19 S16) S18)
(declare-fun f28 (S20 S11) S19)
(declare-fun f29 () S20)
(declare-fun f30 () S3)
(declare-fun f31 (S21 S13) S3)
(declare-fun f32 () S21)
(declare-fun f33 () S4)
(declare-fun f34 (S22 S3) S2)
(declare-fun f35 () S22)
(declare-fun f36 () S1)
(declare-fun f37 () S16)
(declare-fun f38 (S23 S16) S16)
(declare-fun f39 (S24 S16) S23)
(declare-fun f40 () S24)
(declare-fun f41 () S17)
(declare-fun f42 (S26 S25) S4)
(declare-fun f43 () S26)
(declare-fun f44 () S17)
(declare-fun f45 (S27 S13) S1)
(declare-fun f46 (S28 S13) S27)
(declare-fun f47 () S28)
(declare-fun f48 (S29 S1) S1)
(declare-fun f49 (S30 S1) S29)
(declare-fun f50 () S30)
(declare-fun f51 () S13)
(declare-fun f52 (S31 S1) S13)
(declare-fun f53 (S32 S3) S13)
(declare-fun f54 (S33 S13) S13)
(assert (not (= f1 f2)))
(assert (forall ((?v0 S2) (?v1 S3) (?v2 S2)) (= (= (f3 (f4 (f5 f6 ?v0) ?v1) ?v2) f1) (or (= ?v2 ?v0) (= (f7 (f8 f9 ?v2) ?v1) f1)))))
(assert (forall ((?v0 S2) (?v1 S3) (?v2 S2)) (= (= (f3 (f4 (f5 f10 ?v0) ?v1) ?v2) f1) (=> (not (= ?v2 ?v0)) (= (f3 ?v1 ?v2) f1)))))
(assert (forall ((?v0 S2)) (= (= (f3 f11 ?v0) f1) false)))
(assert (not (forall ((?v0 S8) (?v1 S9)) (=> (= (f12 (f13 f14 ?v0) ?v1) f1) (forall ((?v2 S9)) (=> (= (f12 (f15 (f16 (f17 f18 f19) ?v1) f20) ?v2) f1) (= (f12 (f13 f21 ?v0) ?v2) f1)))))))
(assert (forall ((?v0 S8) (?v1 S9)) (=> (= (f12 (f13 f14 ?v0) ?v1) f1) (exists ((?v2 S11) (?v3 S11)) (and (= (f7 (f22 f23 f24) (f4 (f5 f25 (f26 (f27 (f28 f29 ?v2) f19) ?v3)) f30)) f1) (and (forall ((?v4 S13)) (=> (forall ((?v5 S2)) (=> (= (f7 (f8 f9 ?v5) f24) f1) (= (f3 (f31 f32 ?v4) ?v5) f1))) (forall ((?v5 S8) (?v6 S9)) (=> (= (f12 (f13 ?v2 ?v5) ?v6) f1) (forall ((?v7 S9)) (=> (= (f12 (f15 (f16 (f17 f18 f19) ?v6) ?v4) ?v7) f1) (= (f12 (f13 ?v3 ?v5) ?v7) f1))))))) (forall ((?v4 S9)) (=> (forall ((?v5 S8)) (=> (= (f12 (f13 ?v2 ?v5) ?v1) f1) (= (f12 (f13 ?v3 ?v5) ?v4) f1))) (= (f12 (f13 f21 ?v0) ?v4) f1)))))))))
(assert (forall ((?v0 S2)) (=> (= (f7 (f8 f9 ?v0) f24) f1) (= (f3 (f31 f32 f20) ?v0) f1))))
(assert (forall ((?v0 S3)) (= (f7 (f22 f23 ?v0) f30) f1)))
(assert (forall ((?v0 S13) (?v1 S11) (?v2 S16) (?v3 S11)) (= (= (f3 (f31 f32 ?v0) (f26 (f27 (f28 f29 ?v1) ?v2) ?v3)) f1) (forall ((?v4 S8) (?v5 S9)) (=> (= (f12 (f13 ?v1 ?v4) ?v5) f1) (forall ((?v6 S9)) (=> (= (f12 (f15 (f16 (f17 f18 ?v2) ?v5) ?v0) ?v6) f1) (= (f12 (f13 ?v3 ?v4) ?v6) f1))))))))
(assert (forall ((?v0 S11) (?v1 S16) (?v2 S11) (?v3 S11) (?v4 S16) (?v5 S11)) (= (= (f26 (f27 (f28 f29 ?v0) ?v1) ?v2) (f26 (f27 (f28 f29 ?v3) ?v4) ?v5)) (and (= ?v0 ?v3) (and (= ?v1 ?v4) (= ?v2 ?v5))))))
(assert (forall ((?v0 S3) (?v1 S3) (?v2 S3)) (let ((?v_0 (f22 f23 ?v2))) (=> (= (f7 (f22 f23 ?v0) ?v1) f1) (=> (= (f7 ?v_0 ?v0) f1) (= (f7 ?v_0 ?v1) f1))))))
(assert (forall ((?v0 S3) (?v1 S2) (?v2 S3)) (let ((?v_0 (f22 f23 ?v0)) (?v_1 (f5 f25 ?v1))) (=> (= (f7 ?v_0 (f4 ?v_1 f30)) f1) (=> (= (f7 ?v_0 ?v2) f1) (= (f7 ?v_0 (f4 ?v_1 ?v2)) f1))))))
(assert (forall ((?v0 S3) (?v1 S2) (?v2 S3)) (let ((?v_0 (f22 f23 ?v0)) (?v_1 (f5 f25 ?v1))) (=> (= (f7 ?v_0 (f4 ?v_1 ?v2)) f1) (and (= (f7 ?v_0 (f4 ?v_1 f30)) f1) (= (f7 ?v_0 ?v2) f1))))))
(assert (forall ((?v0 S3) (?v1 S11) (?v2 S16) (?v3 S11) (?v4 S11)) (let ((?v_0 (f22 f23 ?v0)) (?v_1 (f27 (f28 f29 ?v1) ?v2))) (=> (= (f7 ?v_0 (f4 (f5 f25 (f26 ?v_1 ?v3)) f30)) f1) (=> (forall ((?v5 S8) (?v6 S9)) (=> (= (f12 (f13 ?v3 ?v5) ?v6) f1) (= (f12 (f13 ?v4 ?v5) ?v6) f1))) (= (f7 ?v_0 (f4 (f5 f25 (f26 ?v_1 ?v4)) f30)) f1))))))
(assert (forall ((?v0 S3) (?v1 S11) (?v2 S16) (?v3 S11) (?v4 S11)) (let ((?v_0 (f22 f23 ?v0))) (=> (= (f7 ?v_0 (f4 (f5 f25 (f26 (f27 (f28 f29 ?v1) ?v2) ?v3)) f30)) f1) (=> (forall ((?v5 S8) (?v6 S9)) (=> (= (f12 (f13 ?v4 ?v5) ?v6) f1) (= (f12 (f13 ?v1 ?v5) ?v6) f1))) (= (f7 ?v_0 (f4 (f5 f25 (f26 (f27 (f28 f29 ?v4) ?v2) ?v3)) f30)) f1))))))
(assert (forall ((?v0 S2) (?v1 S2) (?v2 S3)) (let ((?v_0 (f8 f9 ?v0))) (=> (= (f7 ?v_0 (f4 (f5 f25 ?v1) ?v2)) f1) (=> (=> (= ?v0 ?v1) false) (=> (=> (= (f7 ?v_0 ?v2) f1) false) false))))))
(assert (forall ((?v0 S2) (?v1 S3) (?v2 S2)) (let ((?v_0 (f8 f9 ?v0))) (=> (=> (not (= (f7 ?v_0 ?v1) f1)) (= ?v0 ?v2)) (= (f7 ?v_0 (f4 (f5 f25 ?v2) ?v1)) f1)))))
(assert (forall ((?v0 S3) (?v1 S11) (?v2 S16) (?v3 S11) (?v4 S11) (?v5 S11)) (let ((?v_0 (f22 f23 ?v0))) (=> (= (f7 ?v_0 (f4 (f5 f25 (f26 (f27 (f28 f29 ?v1) ?v2) ?v3)) f30)) f1) (=> (forall ((?v6 S8) (?v7 S9)) (=> (= (f12 (f13 ?v4 ?v6) ?v7) f1) (forall ((?v8 S9)) (=> (forall ((?v9 S8)) (=> (= (f12 (f13 ?v1 ?v9) ?v7) f1) (= (f12 (f13 ?v3 ?v9) ?v8) f1))) (= (f12 (f13 ?v5 ?v6) ?v8) f1))))) (= (f7 ?v_0 (f4 (f5 f25 (f26 (f27 (f28 f29 ?v4) ?v2) ?v5)) f30)) f1))))))
(assert (forall ((?v0 S2)) (=> (= (f7 (f8 f9 ?v0) f30) f1) false)))
(assert (forall ((?v0 S2) (?v1 S3)) (not (= f30 (f4 (f5 f25 ?v0) ?v1)))))
(assert (forall ((?v0 S2) (?v1 S3)) (not (= (f4 (f5 f25 ?v0) ?v1) f30))))
(assert (forall ((?v0 S2) (?v1 S2)) (= (= (f7 (f8 f9 ?v0) (f4 (f5 f25 ?v1) f30)) f1) (= ?v0 ?v1))))
(assert (forall ((?v0 S2) (?v1 S2) (?v2 S2) (?v3 S2)) (= (= (f4 (f5 f25 ?v0) (f4 (f5 f25 ?v1) f30)) (f4 (f5 f25 ?v2) (f4 (f5 f25 ?v3) f30))) (or (and (= ?v0 ?v2) (= ?v1 ?v3)) (and (= ?v0 ?v3) (= ?v1 ?v2))))))
(assert (forall ((?v0 S3) (?v1 S2)) (=> (= ?v0 f30) (not (= (f7 (f8 f9 ?v1) ?v0) f1)))))
(assert (forall ((?v0 S3)) (= (= (f4 f33 ?v0) f30) (forall ((?v1 S2)) (not (= (f3 ?v0 ?v1) f1))))))
(assert (forall ((?v0 S2)) (= (= (f7 (f8 f9 ?v0) f30) f1) false)))
(assert (forall ((?v0 S3)) (= (= f30 (f4 f33 ?v0)) (forall ((?v1 S2)) (not (= (f3 ?v0 ?v1) f1))))))
(assert (forall ((?v0 S3)) (= (forall ((?v1 S2)) (=> (= (f7 (f8 f9 ?v1) f30) f1) (= (f3 ?v0 ?v1) f1))) true)))
(assert (forall ((?v0 S3)) (= (exists ((?v1 S2)) (and (= (f7 (f8 f9 ?v1) f30) f1) (= (f3 ?v0 ?v1) f1))) false)))
(assert (forall ((?v0 S3)) (= (exists ((?v1 S2)) (= (f7 (f8 f9 ?v1) ?v0) f1)) (not (= ?v0 f30)))))
(assert (forall ((?v0 S3)) (= (forall ((?v1 S2)) (not (= (f7 (f8 f9 ?v1) ?v0) f1))) (= ?v0 f30))))
(assert (= f30 (f4 f33 f11)))
(assert (forall ((?v0 S2) (?v1 S3)) (=> (= (f7 (f8 f9 ?v0) ?v1) f1) (= (f4 (f5 f25 ?v0) ?v1) ?v1))))
(assert (forall ((?v0 S2) (?v1 S3) (?v2 S2)) (let ((?v_0 (f8 f9 ?v0))) (=> (= (f7 ?v_0 ?v1) f1) (= (f7 ?v_0 (f4 (f5 f25 ?v2) ?v1)) f1)))))
(assert (forall ((?v0 S2) (?v1 S3) (?v2 S3)) (let ((?v_0 (f8 f9 ?v0)) (?v_1 (f5 f25 ?v0))) (=> (not (= (f7 ?v_0 ?v1) f1)) (=> (not (= (f7 ?v_0 ?v2) f1)) (= (= (f4 ?v_1 ?v1) (f4 ?v_1 ?v2)) (= ?v1 ?v2)))))))
(assert (forall ((?v0 S2) (?v1 S3) (?v2 S2)) (= (= (f3 (f4 (f5 f25 ?v0) ?v1) ?v2) f1) (or (= ?v0 ?v2) (= (f3 ?v1 ?v2) f1)))))
(assert (forall ((?v0 S2) (?v1 S2) (?v2 S3)) (let ((?v_0 (f8 f9 ?v0))) (= (= (f7 ?v_0 (f4 (f5 f25 ?v1) ?v2)) f1) (or (= ?v0 ?v1) (= (f7 ?v_0 ?v2) f1))))))
(assert (forall ((?v0 S2) (?v1 S2) (?v2 S3)) (let ((?v_1 (f5 f25 ?v0)) (?v_0 (f5 f25 ?v1))) (= (f4 ?v_1 (f4 ?v_0 ?v2)) (f4 ?v_0 (f4 ?v_1 ?v2))))))
(assert (forall ((?v0 S2) (?v1 S3)) (let ((?v_0 (f5 f25 ?v0))) (let ((?v_1 (f4 ?v_0 ?v1))) (= (f4 ?v_0 ?v_1) ?v_1)))))
(assert (forall ((?v0 S2) (?v1 S3)) (= (f4 (f5 f25 ?v0) (f4 f33 ?v1)) (f4 f33 (f4 (f5 f10 ?v0) ?v1)))))
(assert (forall ((?v0 S2) (?v1 S3)) (= (f4 (f5 f25 ?v0) ?v1) (f4 f33 (f4 (f5 f6 ?v0) ?v1)))))
(assert (forall ((?v0 S2) (?v1 S3)) (= (f7 (f8 f9 ?v0) (f4 (f5 f25 ?v0) ?v1)) f1)))
(assert (forall ((?v0 S2) (?v1 S2)) (=> (= (f4 (f5 f25 ?v0) f30) (f4 (f5 f25 ?v1) f30)) (= ?v0 ?v1))))
(assert (forall ((?v0 S2) (?v1 S2)) (=> (= (f7 (f8 f9 ?v0) (f4 (f5 f25 ?v1) f30)) f1) (=> (=> (= ?v0 ?v1) false) false))))
(assert (forall ((?v0 S2)) (= (f34 f35 (f4 (f5 f25 ?v0) f30)) ?v0)))
(assert (forall ((?v0 S2)) (= (= (f3 f30 ?v0) f1) (= f36 f1))))
(assert (forall ((?v0 S2)) (= (= (f3 f30 ?v0) f1) (= f36 f1))))
(assert (forall ((?v0 S3) (?v1 S11)) (= (f7 (f22 f23 ?v0) (f4 (f5 f25 (f26 (f27 (f28 f29 ?v1) f37) ?v1)) f30)) f1)))
(assert (forall ((?v0 S3) (?v1 S11) (?v2 S16) (?v3 S11) (?v4 S16) (?v5 S11)) (let ((?v_0 (f22 f23 ?v0)) (?v_1 (f28 f29 ?v1))) (=> (= (f7 ?v_0 (f4 (f5 f25 (f26 (f27 ?v_1 ?v2) ?v3)) f30)) f1) (=> (= (f7 ?v_0 (f4 (f5 f25 (f26 (f27 (f28 f29 ?v3) ?v4) ?v5)) f30)) f1) (= (f7 ?v_0 (f4 (f5 f25 (f26 (f27 ?v_1 (f38 (f39 f40 ?v2) ?v4)) ?v5)) f30)) f1))))))
(assert (forall ((?v0 S2)) (=> (forall ((?v1 S11) (?v2 S16) (?v3 S11)) (=> (= ?v0 (f26 (f27 (f28 f29 ?v1) ?v2) ?v3)) false)) false)))
(assert (forall ((?v0 S2) (?v1 S3)) (=> (= (f7 (f8 f9 ?v0) ?v1) f1) (=> (forall ((?v2 S3)) (=> (= ?v1 (f4 (f5 f25 ?v0) ?v2)) (=> (not (= (f7 (f8 f9 ?v0) ?v2) f1)) false))) false))))
(assert (forall ((?v0 S2) (?v1 S3)) (=> (= (f7 (f8 f9 ?v0) ?v1) f1) (exists ((?v2 S3)) (and (= ?v1 (f4 (f5 f25 ?v0) ?v2)) (not (= (f7 (f8 f9 ?v0) ?v2) f1)))))))
(assert (forall ((?v0 S3)) (=> (forall ((?v1 S2)) (=> (= (f7 (f8 f9 ?v1) ?v0) f1) false)) (= ?v0 f30))))
(assert (forall ((?v0 S11) (?v1 S3) (?v2 S16) (?v3 S11)) (=> (forall ((?v4 S8) (?v5 S9)) (=> (= (f12 (f13 ?v0 ?v4) ?v5) f1) (exists ((?v6 S11) (?v7 S11)) (and (= (f7 (f22 f23 ?v1) (f4 (f5 f25 (f26 (f27 (f28 f29 ?v6) ?v2) ?v7)) f30)) f1) (forall ((?v8 S9)) (=> (forall ((?v9 S8)) (=> (= (f12 (f13 ?v6 ?v9) ?v5) f1) (= (f12 (f13 ?v7 ?v9) ?v8) f1))) (= (f12 (f13 ?v3 ?v4) ?v8) f1))))))) (= (f7 (f22 f23 ?v1) (f4 (f5 f25 (f26 (f27 (f28 f29 ?v0) ?v2) ?v3)) f30)) f1))))
(assert (forall ((?v0 S9) (?v1 S13)) (= (f12 (f15 (f16 (f17 f18 f37) ?v0) ?v1) ?v0) f1)))
(assert (forall ((?v0 S9) (?v1 S13) (?v2 S9)) (=> (= (f12 (f15 (f16 (f17 f18 f37) ?v0) ?v1) ?v2) f1) (=> (=> (= ?v2 ?v0) false) false))))
(assert (forall ((?v0 S16) (?v1 S9) (?v2 S13) (?v3 S9) (?v4 S16) (?v5 S9)) (=> (= (f12 (f15 (f16 (f17 f18 ?v0) ?v1) ?v2) ?v3) f1) (=> (= (f12 (f15 (f16 (f17 f18 ?v4) ?v3) ?v2) ?v5) f1) (= (f12 (f15 (f16 (f17 f18 (f38 (f39 f40 ?v0) ?v4)) ?v1) ?v2) ?v5) f1)))))
(assert (forall ((?v0 S16) (?v1 S16)) (not (= (f38 (f39 f40 ?v0) ?v1) f37))))
(assert (forall ((?v0 S16) (?v1 S16)) (not (= f37 (f38 (f39 f40 ?v0) ?v1)))))
(assert (forall ((?v0 S16) (?v1 S16) (?v2 S9) (?v3 S13) (?v4 S9)) (=> (= (f12 (f15 (f16 (f17 f18 (f38 (f39 f40 ?v0) ?v1)) ?v2) ?v3) ?v4) f1) (=> (forall ((?v5 S9)) (=> (= (f12 (f15 (f16 (f17 f18 ?v0) ?v2) ?v3) ?v5) f1) (=> (= (f12 (f15 (f16 (f17 f18 ?v1) ?v5) ?v3) ?v4) f1) false))) false))))
(assert (forall ((?v0 S16) (?v1 S16) (?v2 S16) (?v3 S16)) (= (= (f38 (f39 f40 ?v0) ?v1) (f38 (f39 f40 ?v2) ?v3)) (and (= ?v0 ?v2) (= ?v1 ?v3)))))
(assert (forall ((?v0 S3) (?v1 S3)) (= (= (f7 (f22 f41 ?v0) ?v1) f1) (forall ((?v2 S13)) (=> (forall ((?v3 S2)) (=> (= (f7 (f8 f9 ?v3) ?v0) f1) (= (f3 (f31 f32 ?v2) ?v3) f1))) (forall ((?v3 S2)) (=> (= (f7 (f8 f9 ?v3) ?v1) f1) (= (f3 (f31 f32 ?v2) ?v3) f1))))))))
(assert (forall ((?v0 S16) (?v1 S9) (?v2 S13) (?v3 S9) (?v4 S16) (?v5 S9) (?v6 S13) (?v7 S9)) (=> (= (f12 (f15 (f16 (f17 f18 ?v0) ?v1) ?v2) ?v3) f1) (=> (= (f12 (f15 (f16 (f17 f18 ?v4) ?v5) ?v6) ?v7) f1) (exists ((?v8 S13)) (and (= (f12 (f15 (f16 (f17 f18 ?v0) ?v1) ?v8) ?v3) f1) (= (f12 (f15 (f16 (f17 f18 ?v4) ?v5) ?v8) ?v7) f1)))))))
(assert (forall ((?v0 S3)) (= (not (= ?v0 f30)) (exists ((?v1 S2) (?v2 S3)) (and (= ?v0 (f4 (f5 f25 ?v1) ?v2)) (not (= (f7 (f8 f9 ?v1) ?v2) f1)))))))
(assert (forall ((?v0 S2)) (= (= (f3 f30 ?v0) f1) (= (f7 (f8 f9 ?v0) f30) f1))))
(assert (forall ((?v0 S25) (?v1 S2) (?v2 S2)) (= (= (f3 (f4 (f42 f43 ?v0) (f4 (f5 f25 ?v1) f30)) ?v2) f1) (= ?v1 ?v2))))
(assert (forall ((?v0 S3) (?v1 S2)) (let ((?v_0 (f4 (f5 f25 ?v1) f30))) (=> (= (f7 (f22 f44 ?v0) ?v_0) f1) (or (= ?v0 f30) (= ?v0 ?v_0))))))
(assert (forall ((?v0 S13)) (= (f45 (f46 f47 ?v0) ?v0) f1)))
(assert (forall ((?v0 S1)) (= (f48 (f49 f50 ?v0) ?v0) f1)))
(assert (forall ((?v0 S3)) (= (f7 (f22 f44 ?v0) ?v0) f1)))
(assert (forall ((?v0 S3) (?v1 S3) (?v2 S2)) (let ((?v_0 (f8 f9 ?v2))) (=> (= (f7 (f22 f44 ?v0) ?v1) f1) (=> (= (f7 ?v_0 ?v0) f1) (= (f7 ?v_0 ?v1) f1))))))
(assert (forall ((?v0 S3) (?v1 S3)) (=> (= (f7 (f22 f44 ?v0) ?v1) f1) (=> (= (f7 (f22 f44 ?v1) ?v0) f1) (= ?v0 ?v1)))))
(assert (forall ((?v0 S3)) (= (f7 (f22 f44 f30) ?v0) f1)))
(assert (forall ((?v0 S3)) (= (f7 (f22 f44 ?v0) ?v0) f1)))
(assert (forall ((?v0 S3) (?v1 S3)) (= (= ?v0 ?v1) (and (= (f7 (f22 f44 ?v0) ?v1) f1) (= (f7 (f22 f44 ?v1) ?v0) f1)))))
(assert (forall ((?v0 S3) (?v1 S3)) (=> (= ?v0 ?v1) (= (f7 (f22 f44 ?v0) ?v1) f1))))
(assert (forall ((?v0 S3) (?v1 S3)) (=> (= ?v0 ?v1) (= (f7 (f22 f44 ?v1) ?v0) f1))))
(assert (forall ((?v0 S3) (?v1 S3) (?v2 S2)) (let ((?v_0 (f8 f9 ?v2))) (=> (= (f7 (f22 f44 ?v0) ?v1) f1) (=> (= (f7 ?v_0 ?v0) f1) (= (f7 ?v_0 ?v1) f1))))))
(assert (forall ((?v0 S2) (?v1 S3) (?v2 S3)) (let ((?v_0 (f8 f9 ?v0))) (=> (= (f7 ?v_0 ?v1) f1) (=> (= (f7 (f22 f44 ?v1) ?v2) f1) (= (f7 ?v_0 ?v2) f1))))))
(assert (forall ((?v0 S3) (?v1 S3) (?v2 S2)) (let ((?v_0 (f8 f9 ?v2))) (=> (= (f7 (f22 f44 ?v0) ?v1) f1) (=> (= (f7 ?v_0 ?v0) f1) (= (f7 ?v_0 ?v1) f1))))))
(assert (forall ((?v0 S2) (?v1 S3)) (= (= (f7 (f8 f9 ?v0) ?v1) f1) (= (f3 ?v1 ?v0) f1))))
(assert (forall ((?v0 S3)) (= (f4 f33 ?v0) ?v0)))
(assert (forall ((?v0 S3) (?v1 S3) (?v2 S3)) (let ((?v_0 (f22 f44 ?v0))) (=> (= (f7 ?v_0 ?v1) f1) (=> (= (f7 (f22 f44 ?v1) ?v2) f1) (= (f7 ?v_0 ?v2) f1))))))
(assert (forall ((?v0 S3) (?v1 S3)) (=> (= ?v0 ?v1) (=> (=> (= (f7 (f22 f44 ?v0) ?v1) f1) (=> (= (f7 (f22 f44 ?v1) ?v0) f1) false)) false))))
(assert (forall ((?v0 S3) (?v1 S3) (?v2 S2)) (=> (= (f7 (f22 f44 ?v0) ?v1) f1) (=> (= (f3 ?v0 ?v2) f1) (= (f3 ?v1 ?v2) f1)))))
(assert (forall ((?v0 S3) (?v1 S2) (?v2 S3)) (=> (= (f3 ?v0 ?v1) f1) (=> (= (f7 (f22 f44 ?v0) ?v2) f1) (= (f3 ?v2 ?v1) f1)))))
(assert (forall ((?v0 S3) (?v1 S3)) (= (= (f7 (f22 f44 ?v0) ?v1) f1) (forall ((?v2 S2)) (= (f48 (f49 f50 (f3 ?v0 ?v2)) (f3 ?v1 ?v2)) f1)))))
(assert (forall ((?v0 S13) (?v1 S13)) (or (= (f45 (f46 f47 ?v0) ?v1) f1) (= (f45 (f46 f47 ?v1) ?v0) f1))))
(assert (forall ((?v0 S13) (?v1 S13)) (= (= ?v0 ?v1) (and (= (f45 (f46 f47 ?v0) ?v1) f1) (= (f45 (f46 f47 ?v1) ?v0) f1)))))
(assert (forall ((?v0 S1) (?v1 S1)) (= (= (= ?v0 f1) (= ?v1 f1)) (and (= (f48 (f49 f50 ?v0) ?v1) f1) (= (f48 (f49 f50 ?v1) ?v0) f1)))))
(assert (forall ((?v0 S3) (?v1 S3)) (= (= ?v0 ?v1) (and (= (f7 (f22 f44 ?v0) ?v1) f1) (= (f7 (f22 f44 ?v1) ?v0) f1)))))
(assert (forall ((?v0 S13) (?v1 S13)) (=> (= ?v0 ?v1) (= (f45 (f46 f47 ?v0) ?v1) f1))))
(assert (forall ((?v0 S1) (?v1 S1)) (=> (= (= ?v0 f1) (= ?v1 f1)) (= (f48 (f49 f50 ?v0) ?v1) f1))))
(assert (forall ((?v0 S3) (?v1 S3)) (=> (= ?v0 ?v1) (= (f7 (f22 f44 ?v0) ?v1) f1))))
(assert (forall ((?v0 S3) (?v1 S3) (?v2 S2)) (=> (= (f7 (f22 f44 ?v0) ?v1) f1) (= (f48 (f49 f50 (f3 ?v0 ?v2)) (f3 ?v1 ?v2)) f1))))
(assert (forall ((?v0 S13) (?v1 S13)) (=> (= (f45 (f46 f47 ?v0) ?v1) f1) (= (= (f45 (f46 f47 ?v1) ?v0) f1) (= ?v1 ?v0)))))
(assert (forall ((?v0 S1) (?v1 S1)) (=> (= (f48 (f49 f50 ?v0) ?v1) f1) (= (= (f48 (f49 f50 ?v1) ?v0) f1) (= (= ?v1 f1) (= ?v0 f1))))))
(assert (forall ((?v0 S3) (?v1 S3)) (=> (= (f7 (f22 f44 ?v0) ?v1) f1) (= (= (f7 (f22 f44 ?v1) ?v0) f1) (= ?v1 ?v0)))))
(assert (forall ((?v0 S13) (?v1 S13) (?v2 S13)) (=> (= ?v0 ?v1) (=> (= (f45 (f46 f47 ?v1) ?v2) f1) (= (f45 (f46 f47 ?v0) ?v2) f1)))))
(assert (forall ((?v0 S1) (?v1 S1) (?v2 S1)) (=> (= (= ?v0 f1) (= ?v1 f1)) (=> (= (f48 (f49 f50 ?v1) ?v2) f1) (= (f48 (f49 f50 ?v0) ?v2) f1)))))
(assert (forall ((?v0 S3) (?v1 S3) (?v2 S3)) (=> (= ?v0 ?v1) (=> (= (f7 (f22 f44 ?v1) ?v2) f1) (= (f7 (f22 f44 ?v0) ?v2) f1)))))
(assert (forall ((?v0 S13) (?v1 S13) (?v2 S13)) (let ((?v_0 (f46 f47 ?v2))) (=> (= ?v0 ?v1) (=> (= (f45 ?v_0 ?v1) f1) (= (f45 ?v_0 ?v0) f1))))))
(assert (forall ((?v0 S1) (?v1 S1) (?v2 S1)) (let ((?v_0 (f49 f50 ?v2))) (=> (= (= ?v0 f1) (= ?v1 f1)) (=> (= (f48 ?v_0 ?v1) f1) (= (f48 ?v_0 ?v0) f1))))))
(assert (forall ((?v0 S3) (?v1 S3) (?v2 S3)) (let ((?v_0 (f22 f44 ?v2))) (=> (= ?v0 ?v1) (=> (= (f7 ?v_0 ?v1) f1) (= (f7 ?v_0 ?v0) f1))))))
(assert (forall ((?v0 S13) (?v1 S13) (?v2 S13)) (let ((?v_0 (f46 f47 ?v0))) (=> (= (f45 ?v_0 ?v1) f1) (=> (= ?v1 ?v2) (= (f45 ?v_0 ?v2) f1))))))
(assert (forall ((?v0 S1) (?v1 S1) (?v2 S1)) (let ((?v_0 (f49 f50 ?v0))) (=> (= (f48 ?v_0 ?v1) f1) (=> (= (= ?v1 f1) (= ?v2 f1)) (= (f48 ?v_0 ?v2) f1))))))
(assert (forall ((?v0 S3) (?v1 S3) (?v2 S3)) (let ((?v_0 (f22 f44 ?v0))) (=> (= (f7 ?v_0 ?v1) f1) (=> (= ?v1 ?v2) (= (f7 ?v_0 ?v2) f1))))))
(assert (forall ((?v0 S13) (?v1 S13) (?v2 S13)) (=> (= (f45 (f46 f47 ?v0) ?v1) f1) (=> (= ?v0 ?v2) (= (f45 (f46 f47 ?v2) ?v1) f1)))))
(assert (forall ((?v0 S1) (?v1 S1) (?v2 S1)) (=> (= (f48 (f49 f50 ?v0) ?v1) f1) (=> (= (= ?v0 f1) (= ?v2 f1)) (= (f48 (f49 f50 ?v2) ?v1) f1)))))
(assert (forall ((?v0 S3) (?v1 S3) (?v2 S3)) (=> (= (f7 (f22 f44 ?v0) ?v1) f1) (=> (= ?v0 ?v2) (= (f7 (f22 f44 ?v2) ?v1) f1)))))
(assert (forall ((?v0 S13) (?v1 S13)) (=> (= (f45 (f46 f47 ?v0) ?v1) f1) (=> (= (f45 (f46 f47 ?v1) ?v0) f1) (= ?v0 ?v1)))))
(assert (forall ((?v0 S1) (?v1 S1)) (=> (= (f48 (f49 f50 ?v0) ?v1) f1) (=> (= (f48 (f49 f50 ?v1) ?v0) f1) (= (= ?v0 f1) (= ?v1 f1))))))
(assert (forall ((?v0 S3) (?v1 S3)) (=> (= (f7 (f22 f44 ?v0) ?v1) f1) (=> (= (f7 (f22 f44 ?v1) ?v0) f1) (= ?v0 ?v1)))))
(assert (forall ((?v0 S13) (?v1 S13) (?v2 S13)) (let ((?v_0 (f46 f47 ?v0))) (=> (= (f45 ?v_0 ?v1) f1) (=> (= (f45 (f46 f47 ?v1) ?v2) f1) (= (f45 ?v_0 ?v2) f1))))))
(assert (forall ((?v0 S1) (?v1 S1) (?v2 S1)) (let ((?v_0 (f49 f50 ?v0))) (=> (= (f48 ?v_0 ?v1) f1) (=> (= (f48 (f49 f50 ?v1) ?v2) f1) (= (f48 ?v_0 ?v2) f1))))))
(assert (forall ((?v0 S3) (?v1 S3) (?v2 S3)) (let ((?v_0 (f22 f44 ?v0))) (=> (= (f7 ?v_0 ?v1) f1) (=> (= (f7 (f22 f44 ?v1) ?v2) f1) (= (f7 ?v_0 ?v2) f1))))))
(assert (forall ((?v0 S13) (?v1 S13)) (=> (= (f45 (f46 f47 ?v0) ?v1) f1) (=> (= (f45 (f46 f47 ?v1) ?v0) f1) (= ?v1 ?v0)))))
(assert (forall ((?v0 S1) (?v1 S1)) (=> (= (f48 (f49 f50 ?v0) ?v1) f1) (=> (= (f48 (f49 f50 ?v1) ?v0) f1) (= (= ?v1 f1) (= ?v0 f1))))))
(assert (forall ((?v0 S3) (?v1 S3)) (=> (= (f7 (f22 f44 ?v0) ?v1) f1) (=> (= (f7 (f22 f44 ?v1) ?v0) f1) (= ?v1 ?v0)))))
(assert (forall ((?v0 S13) (?v1 S13) (?v2 S13)) (let ((?v_0 (f46 f47 ?v2))) (=> (= (f45 (f46 f47 ?v0) ?v1) f1) (=> (= (f45 ?v_0 ?v0) f1) (= (f45 ?v_0 ?v1) f1))))))
(assert (forall ((?v0 S1) (?v1 S1) (?v2 S1)) (let ((?v_0 (f49 f50 ?v2))) (=> (= (f48 (f49 f50 ?v0) ?v1) f1) (=> (= (f48 ?v_0 ?v0) f1) (= (f48 ?v_0 ?v1) f1))))))
(assert (forall ((?v0 S3) (?v1 S3) (?v2 S3)) (let ((?v_0 (f22 f44 ?v2))) (=> (= (f7 (f22 f44 ?v0) ?v1) f1) (=> (= (f7 ?v_0 ?v0) f1) (= (f7 ?v_0 ?v1) f1))))))
(assert (forall ((?v0 S3) (?v1 S3) (?v2 S2)) (=> (= (f7 (f22 f44 ?v0) ?v1) f1) (=> (=> (= (f48 (f49 f50 (f3 ?v0 ?v2)) (f3 ?v1 ?v2)) f1) false) false))))
(assert (forall ((?v0 S13) (?v1 S13)) (=> (=> (= (f45 (f46 f47 ?v0) ?v1) f1) false) (=> (=> (= (f45 (f46 f47 ?v1) ?v0) f1) false) false))))
(assert (forall ((?v0 S25) (?v1 S2)) (=> (= (f3 (f4 (f42 f43 ?v0) f30) ?v1) f1) false)))
(assert (forall ((?v0 S25) (?v1 S3) (?v2 S2)) (=> (= (f3 (f4 (f42 f43 ?v0) ?v1) ?v2) f1) (not (= ?v1 f30)))))
(assert (forall ((?v0 S3)) (= (f7 (f22 f44 f30) ?v0) f1)))
(assert (forall ((?v0 S13)) (= (f45 (f46 f47 f51) ?v0) f1)))
(assert (forall ((?v0 S1)) (= (f48 (f49 f50 f36) ?v0) f1)))
(assert (forall ((?v0 S3)) (= (= (f7 (f22 f44 ?v0) f30) f1) (= ?v0 f30))))
(assert (forall ((?v0 S13)) (= (= (f45 (f46 f47 ?v0) f51) f1) (= ?v0 f51))))
(assert (forall ((?v0 S1)) (= (= (f48 (f49 f50 ?v0) f36) f1) (= (= ?v0 f1) (= f36 f1)))))
(assert (forall ((?v0 S3)) (=> (= (f7 (f22 f44 ?v0) f30) f1) (= ?v0 f30))))
(assert (forall ((?v0 S13)) (=> (= (f45 (f46 f47 ?v0) f51) f1) (= ?v0 f51))))
(assert (forall ((?v0 S1)) (=> (= (f48 (f49 f50 ?v0) f36) f1) (= (= ?v0 f1) (= f36 f1)))))
(assert (forall ((?v0 S3)) (= (= (f7 (f22 f44 ?v0) f30) f1) (= ?v0 f30))))
(assert (forall ((?v0 S3) (?v1 S2)) (= (f7 (f22 f44 ?v0) (f4 (f5 f25 ?v1) ?v0)) f1)))
(assert (forall ((?v0 S2) (?v1 S3) (?v2 S3)) (= (= (f7 (f22 f44 (f4 (f5 f25 ?v0) ?v1)) ?v2) f1) (and (= (f7 (f8 f9 ?v0) ?v2) f1) (= (f7 (f22 f44 ?v1) ?v2) f1)))))
(assert (forall ((?v0 S2) (?v1 S3) (?v2 S3)) (let ((?v_0 (f22 f44 ?v1))) (=> (not (= (f7 (f8 f9 ?v0) ?v1) f1)) (= (= (f7 ?v_0 (f4 (f5 f25 ?v0) ?v2)) f1) (= (f7 ?v_0 ?v2) f1))))))
(assert (forall ((?v0 S3) (?v1 S3) (?v2 S2)) (let ((?v_0 (f22 f44 ?v0))) (=> (= (f7 ?v_0 ?v1) f1) (= (f7 ?v_0 (f4 (f5 f25 ?v2) ?v1)) f1)))))
(assert (forall ((?v0 S3) (?v1 S3) (?v2 S2)) (let ((?v_0 (f5 f25 ?v2))) (=> (= (f7 (f22 f44 ?v0) ?v1) f1) (= (f7 (f22 f44 (f4 ?v_0 ?v0)) (f4 ?v_0 ?v1)) f1)))))
(assert (forall ((?v0 S3) (?v1 S3)) (=> (= (f7 (f22 f44 ?v0) ?v1) f1) (= (f7 (f22 f23 ?v1) ?v0) f1))))
(assert (forall ((?v0 S3) (?v1 S3) (?v2 S3)) (let ((?v_0 (f22 f23 ?v0))) (=> (= (f7 ?v_0 ?v1) f1) (=> (= (f7 (f22 f44 ?v2) ?v1) f1) (= (f7 ?v_0 ?v2) f1))))))
(assert (forall ((?v0 S3) (?v1 S3) (?v2 S3)) (=> (= (f7 (f22 f23 ?v0) ?v1) f1) (=> (= (f7 (f22 f44 ?v0) ?v2) f1) (= (f7 (f22 f23 ?v2) ?v1) f1)))))
(assert (forall ((?v0 S3) (?v1 S3)) (=> (forall ((?v2 S2)) (let ((?v_0 (f8 f9 ?v2))) (=> (= (f7 ?v_0 ?v0) f1) (= (f7 ?v_0 ?v1) f1)))) (= (f7 (f22 f44 ?v0) ?v1) f1))))
(assert (forall ((?v0 S3) (?v1 S3)) (=> (forall ((?v2 S2)) (= (f48 (f49 f50 (f3 ?v0 ?v2)) (f3 ?v1 ?v2)) f1)) (= (f7 (f22 f44 ?v0) ?v1) f1))))
(assert (forall ((?v0 S3) (?v1 S3)) (=> (forall ((?v2 S2)) (=> (= (f3 ?v0 ?v2) f1) (= (f3 ?v1 ?v2) f1))) (= (f7 (f22 f44 (f4 f33 ?v0)) (f4 f33 ?v1)) f1))))
(assert (forall ((?v0 S3) (?v1 S3)) (=> (forall ((?v2 S2)) (=> (= (f3 ?v0 ?v2) f1) (= (f3 ?v1 ?v2) f1))) (= (f7 (f22 f44 ?v0) ?v1) f1))))
(assert (forall ((?v0 S1) (?v1 S1) (?v2 S13) (?v3 S31)) (let ((?v_0 (f46 f47 ?v2))) (=> (= (f48 (f49 f50 ?v0) ?v1) f1) (=> (= (f45 ?v_0 (f52 ?v3 ?v0)) f1) (=> (forall ((?v4 S1) (?v5 S1)) (=> (= (f48 (f49 f50 ?v5) ?v4) f1) (= (f45 (f46 f47 (f52 ?v3 ?v5)) (f52 ?v3 ?v4)) f1))) (= (f45 ?v_0 (f52 ?v3 ?v1)) f1)))))))
(assert (forall ((?v0 S3) (?v1 S3) (?v2 S13) (?v3 S32)) (let ((?v_0 (f46 f47 ?v2))) (=> (= (f7 (f22 f44 ?v0) ?v1) f1) (=> (= (f45 ?v_0 (f53 ?v3 ?v0)) f1) (=> (forall ((?v4 S3) (?v5 S3)) (=> (= (f7 (f22 f44 ?v5) ?v4) f1) (= (f45 (f46 f47 (f53 ?v3 ?v5)) (f53 ?v3 ?v4)) f1))) (= (f45 ?v_0 (f53 ?v3 ?v1)) f1)))))))
(assert (forall ((?v0 S13) (?v1 S13) (?v2 S1) (?v3 S27)) (let ((?v_0 (f49 f50 ?v2))) (=> (= (f45 (f46 f47 ?v0) ?v1) f1) (=> (= (f48 ?v_0 (f45 ?v3 ?v0)) f1) (=> (forall ((?v4 S13) (?v5 S13)) (=> (= (f45 (f46 f47 ?v5) ?v4) f1) (= (f48 (f49 f50 (f45 ?v3 ?v5)) (f45 ?v3 ?v4)) f1))) (= (f48 ?v_0 (f45 ?v3 ?v1)) f1)))))))
(assert (forall ((?v0 S13) (?v1 S13) (?v2 S3) (?v3 S21)) (let ((?v_0 (f22 f44 ?v2))) (=> (= (f45 (f46 f47 ?v0) ?v1) f1) (=> (= (f7 ?v_0 (f31 ?v3 ?v0)) f1) (=> (forall ((?v4 S13) (?v5 S13)) (=> (= (f45 (f46 f47 ?v5) ?v4) f1) (= (f7 (f22 f44 (f31 ?v3 ?v5)) (f31 ?v3 ?v4)) f1))) (= (f7 ?v_0 (f31 ?v3 ?v1)) f1)))))))
(assert (forall ((?v0 S13) (?v1 S13) (?v2 S33) (?v3 S13)) (=> (= (f45 (f46 f47 ?v0) ?v1) f1) (=> (= (f54 ?v2 ?v0) ?v3) (=> (forall ((?v4 S13) (?v5 S13)) (=> (= (f45 (f46 f47 ?v5) ?v4) f1) (= (f45 (f46 f47 (f54 ?v2 ?v5)) (f54 ?v2 ?v4)) f1))) (= (f45 (f46 f47 ?v3) (f54 ?v2 ?v1)) f1))))))
(assert (forall ((?v0 S1) (?v1 S1) (?v2 S29) (?v3 S1)) (=> (= (f48 (f49 f50 ?v0) ?v1) f1) (=> (= (= (f48 ?v2 ?v0) f1) (= ?v3 f1)) (=> (forall ((?v4 S1) (?v5 S1)) (=> (= (f48 (f49 f50 ?v5) ?v4) f1) (= (f48 (f49 f50 (f48 ?v2 ?v5)) (f48 ?v2 ?v4)) f1))) (= (f48 (f49 f50 ?v3) (f48 ?v2 ?v1)) f1))))))
(assert (forall ((?v0 S3) (?v1 S3) (?v2 S4) (?v3 S3)) (=> (= (f7 (f22 f44 ?v0) ?v1) f1) (=> (= (f4 ?v2 ?v0) ?v3) (=> (forall ((?v4 S3) (?v5 S3)) (=> (= (f7 (f22 f44 ?v5) ?v4) f1) (= (f7 (f22 f44 (f4 ?v2 ?v5)) (f4 ?v2 ?v4)) f1))) (= (f7 (f22 f44 ?v3) (f4 ?v2 ?v1)) f1))))))
(assert (forall ((?v0 S1) (?v1 S1) (?v2 S31) (?v3 S13)) (=> (= (f48 (f49 f50 ?v0) ?v1) f1) (=> (= (f52 ?v2 ?v1) ?v3) (=> (forall ((?v4 S1) (?v5 S1)) (=> (= (f48 (f49 f50 ?v4) ?v5) f1) (= (f45 (f46 f47 (f52 ?v2 ?v4)) (f52 ?v2 ?v5)) f1))) (= (f45 (f46 f47 (f52 ?v2 ?v0)) ?v3) f1))))))
(assert (forall ((?v0 S3) (?v1 S3) (?v2 S32) (?v3 S13)) (=> (= (f7 (f22 f44 ?v0) ?v1) f1) (=> (= (f53 ?v2 ?v1) ?v3) (=> (forall ((?v4 S3) (?v5 S3)) (=> (= (f7 (f22 f44 ?v4) ?v5) f1) (= (f45 (f46 f47 (f53 ?v2 ?v4)) (f53 ?v2 ?v5)) f1))) (= (f45 (f46 f47 (f53 ?v2 ?v0)) ?v3) f1))))))
(assert (forall ((?v0 S13) (?v1 S13) (?v2 S27) (?v3 S1)) (=> (= (f45 (f46 f47 ?v0) ?v1) f1) (=> (= (= (f45 ?v2 ?v1) f1) (= ?v3 f1)) (=> (forall ((?v4 S13) (?v5 S13)) (=> (= (f45 (f46 f47 ?v4) ?v5) f1) (= (f48 (f49 f50 (f45 ?v2 ?v4)) (f45 ?v2 ?v5)) f1))) (= (f48 (f49 f50 (f45 ?v2 ?v0)) ?v3) f1))))))
(assert (forall ((?v0 S13) (?v1 S13) (?v2 S21) (?v3 S3)) (=> (= (f45 (f46 f47 ?v0) ?v1) f1) (=> (= (f31 ?v2 ?v1) ?v3) (=> (forall ((?v4 S13) (?v5 S13)) (=> (= (f45 (f46 f47 ?v4) ?v5) f1) (= (f7 (f22 f44 (f31 ?v2 ?v4)) (f31 ?v2 ?v5)) f1))) (= (f7 (f22 f44 (f31 ?v2 ?v0)) ?v3) f1))))))
(assert (forall ((?v0 S16) (?v1 S9) (?v2 S13) (?v3 S9) (?v4 S13)) (let ((?v_0 (f16 (f17 f18 ?v0) ?v1))) (=> (= (f12 (f15 ?v_0 ?v2) ?v3) f1) (=> (= (f45 (f46 f47 ?v2) ?v4) f1) (= (f12 (f15 ?v_0 ?v4) ?v3) f1))))))
(assert (forall ((?v0 S27) (?v1 S13) (?v2 S1) (?v3 S13)) (=> (= (f48 (f49 f50 (f45 ?v0 ?v1)) ?v2) f1) (=> (= (f45 (f46 f47 ?v3) ?v1) f1) (=> (forall ((?v4 S13) (?v5 S13)) (=> (= (f45 (f46 f47 ?v5) ?v4) f1) (= (f48 (f49 f50 (f45 ?v0 ?v5)) (f45 ?v0 ?v4)) f1))) (= (f48 (f49 f50 (f45 ?v0 ?v3)) ?v2) f1))))))
(assert (forall ((?v0 S21) (?v1 S13) (?v2 S3) (?v3 S13)) (=> (= (f7 (f22 f44 (f31 ?v0 ?v1)) ?v2) f1) (=> (= (f45 (f46 f47 ?v3) ?v1) f1) (=> (forall ((?v4 S13) (?v5 S13)) (=> (= (f45 (f46 f47 ?v5) ?v4) f1) (= (f7 (f22 f44 (f31 ?v0 ?v5)) (f31 ?v0 ?v4)) f1))) (= (f7 (f22 f44 (f31 ?v0 ?v3)) ?v2) f1))))))
(assert (forall ((?v0 S31) (?v1 S1) (?v2 S13) (?v3 S1)) (=> (= (f45 (f46 f47 (f52 ?v0 ?v1)) ?v2) f1) (=> (= (f48 (f49 f50 ?v3) ?v1) f1) (=> (forall ((?v4 S1) (?v5 S1)) (=> (= (f48 (f49 f50 ?v5) ?v4) f1) (= (f45 (f46 f47 (f52 ?v0 ?v5)) (f52 ?v0 ?v4)) f1))) (= (f45 (f46 f47 (f52 ?v0 ?v3)) ?v2) f1))))))
(assert (forall ((?v0 S32) (?v1 S3) (?v2 S13) (?v3 S3)) (=> (= (f45 (f46 f47 (f53 ?v0 ?v1)) ?v2) f1) (=> (= (f7 (f22 f44 ?v3) ?v1) f1) (=> (forall ((?v4 S3) (?v5 S3)) (=> (= (f7 (f22 f44 ?v5) ?v4) f1) (= (f45 (f46 f47 (f53 ?v0 ?v5)) (f53 ?v0 ?v4)) f1))) (= (f45 (f46 f47 (f53 ?v0 ?v3)) ?v2) f1))))))
(assert (forall ((?v0 S13) (?v1 S33) (?v2 S13) (?v3 S13)) (=> (= ?v0 (f54 ?v1 ?v2)) (=> (= (f45 (f46 f47 ?v3) ?v2) f1) (=> (forall ((?v4 S13) (?v5 S13)) (=> (= (f45 (f46 f47 ?v5) ?v4) f1) (= (f45 (f46 f47 (f54 ?v1 ?v5)) (f54 ?v1 ?v4)) f1))) (= (f45 (f46 f47 (f54 ?v1 ?v3)) ?v0) f1))))))
(assert (forall ((?v0 S1) (?v1 S29) (?v2 S1) (?v3 S1)) (=> (= (= ?v0 f1) (= (f48 ?v1 ?v2) f1)) (=> (= (f48 (f49 f50 ?v3) ?v2) f1) (=> (forall ((?v4 S1) (?v5 S1)) (=> (= (f48 (f49 f50 ?v5) ?v4) f1) (= (f48 (f49 f50 (f48 ?v1 ?v5)) (f48 ?v1 ?v4)) f1))) (= (f48 (f49 f50 (f48 ?v1 ?v3)) ?v0) f1))))))
(assert (forall ((?v0 S3) (?v1 S4) (?v2 S3) (?v3 S3)) (=> (= ?v0 (f4 ?v1 ?v2)) (=> (= (f7 (f22 f44 ?v3) ?v2) f1) (=> (forall ((?v4 S3) (?v5 S3)) (=> (= (f7 (f22 f44 ?v5) ?v4) f1) (= (f7 (f22 f44 (f4 ?v1 ?v5)) (f4 ?v1 ?v4)) f1))) (= (f7 (f22 f44 (f4 ?v1 ?v3)) ?v0) f1))))))
(assert (forall ((?v0 S1) (?v1 S27) (?v2 S13) (?v3 S13)) (let ((?v_0 (f49 f50 ?v0))) (=> (= (f48 ?v_0 (f45 ?v1 ?v2)) f1) (=> (= (f45 (f46 f47 ?v2) ?v3) f1) (=> (forall ((?v4 S13) (?v5 S13)) (=> (= (f45 (f46 f47 ?v4) ?v5) f1) (= (f48 (f49 f50 (f45 ?v1 ?v4)) (f45 ?v1 ?v5)) f1))) (= (f48 ?v_0 (f45 ?v1 ?v3)) f1)))))))
(assert (forall ((?v0 S3) (?v1 S21) (?v2 S13) (?v3 S13)) (let ((?v_0 (f22 f44 ?v0))) (=> (= (f7 ?v_0 (f31 ?v1 ?v2)) f1) (=> (= (f45 (f46 f47 ?v2) ?v3) f1) (=> (forall ((?v4 S13) (?v5 S13)) (=> (= (f45 (f46 f47 ?v4) ?v5) f1) (= (f7 (f22 f44 (f31 ?v1 ?v4)) (f31 ?v1 ?v5)) f1))) (= (f7 ?v_0 (f31 ?v1 ?v3)) f1)))))))
(assert (forall ((?v0 S13) (?v1 S31) (?v2 S1) (?v3 S1)) (let ((?v_0 (f46 f47 ?v0))) (=> (= (f45 ?v_0 (f52 ?v1 ?v2)) f1) (=> (= (f48 (f49 f50 ?v2) ?v3) f1) (=> (forall ((?v4 S1) (?v5 S1)) (=> (= (f48 (f49 f50 ?v4) ?v5) f1) (= (f45 (f46 f47 (f52 ?v1 ?v4)) (f52 ?v1 ?v5)) f1))) (= (f45 ?v_0 (f52 ?v1 ?v3)) f1)))))))
(assert (forall ((?v0 S13) (?v1 S32) (?v2 S3) (?v3 S3)) (let ((?v_0 (f46 f47 ?v0))) (=> (= (f45 ?v_0 (f53 ?v1 ?v2)) f1) (=> (= (f7 (f22 f44 ?v2) ?v3) f1) (=> (forall ((?v4 S3) (?v5 S3)) (=> (= (f7 (f22 f44 ?v4) ?v5) f1) (= (f45 (f46 f47 (f53 ?v1 ?v4)) (f53 ?v1 ?v5)) f1))) (= (f45 ?v_0 (f53 ?v1 ?v3)) f1)))))))
(assert (forall ((?v0 S13) (?v1 S31) (?v2 S1) (?v3 S1)) (=> (= ?v0 (f52 ?v1 ?v2)) (=> (= (f48 (f49 f50 ?v2) ?v3) f1) (=> (forall ((?v4 S1) (?v5 S1)) (=> (= (f48 (f49 f50 ?v4) ?v5) f1) (= (f45 (f46 f47 (f52 ?v1 ?v4)) (f52 ?v1 ?v5)) f1))) (= (f45 (f46 f47 ?v0) (f52 ?v1 ?v3)) f1))))))
(assert (forall ((?v0 S13) (?v1 S32) (?v2 S3) (?v3 S3)) (=> (= ?v0 (f53 ?v1 ?v2)) (=> (= (f7 (f22 f44 ?v2) ?v3) f1) (=> (forall ((?v4 S3) (?v5 S3)) (=> (= (f7 (f22 f44 ?v4) ?v5) f1) (= (f45 (f46 f47 (f53 ?v1 ?v4)) (f53 ?v1 ?v5)) f1))) (= (f45 (f46 f47 ?v0) (f53 ?v1 ?v3)) f1))))))
(assert (forall ((?v0 S1) (?v1 S27) (?v2 S13) (?v3 S13)) (=> (= (= ?v0 f1) (= (f45 ?v1 ?v2) f1)) (=> (= (f45 (f46 f47 ?v2) ?v3) f1) (=> (forall ((?v4 S13) (?v5 S13)) (=> (= (f45 (f46 f47 ?v4) ?v5) f1) (= (f48 (f49 f50 (f45 ?v1 ?v4)) (f45 ?v1 ?v5)) f1))) (= (f48 (f49 f50 ?v0) (f45 ?v1 ?v3)) f1))))))
(assert (forall ((?v0 S3) (?v1 S21) (?v2 S13) (?v3 S13)) (=> (= ?v0 (f31 ?v1 ?v2)) (=> (= (f45 (f46 f47 ?v2) ?v3) f1) (=> (forall ((?v4 S13) (?v5 S13)) (=> (= (f45 (f46 f47 ?v4) ?v5) f1) (= (f7 (f22 f44 (f31 ?v1 ?v4)) (f31 ?v1 ?v5)) f1))) (= (f7 (f22 f44 ?v0) (f31 ?v1 ?v3)) f1))))))
(assert (forall ((?v0 S1) (?v1 S1) (?v2 S31) (?v3 S13)) (=> (= (f48 (f49 f50 ?v0) ?v1) f1) (=> (= (f45 (f46 f47 (f52 ?v2 ?v1)) ?v3) f1) (=> (forall ((?v4 S1) (?v5 S1)) (=> (= (f48 (f49 f50 ?v4) ?v5) f1) (= (f45 (f46 f47 (f52 ?v2 ?v4)) (f52 ?v2 ?v5)) f1))) (= (f45 (f46 f47 (f52 ?v2 ?v0)) ?v3) f1))))))
(assert (forall ((?v0 S3) (?v1 S3) (?v2 S32) (?v3 S13)) (=> (= (f7 (f22 f44 ?v0) ?v1) f1) (=> (= (f45 (f46 f47 (f53 ?v2 ?v1)) ?v3) f1) (=> (forall ((?v4 S3) (?v5 S3)) (=> (= (f7 (f22 f44 ?v4) ?v5) f1) (= (f45 (f46 f47 (f53 ?v2 ?v4)) (f53 ?v2 ?v5)) f1))) (= (f45 (f46 f47 (f53 ?v2 ?v0)) ?v3) f1))))))
(assert (forall ((?v0 S13) (?v1 S13) (?v2 S27) (?v3 S1)) (=> (= (f45 (f46 f47 ?v0) ?v1) f1) (=> (= (f48 (f49 f50 (f45 ?v2 ?v1)) ?v3) f1) (=> (forall ((?v4 S13) (?v5 S13)) (=> (= (f45 (f46 f47 ?v4) ?v5) f1) (= (f48 (f49 f50 (f45 ?v2 ?v4)) (f45 ?v2 ?v5)) f1))) (= (f48 (f49 f50 (f45 ?v2 ?v0)) ?v3) f1))))))
(assert (forall ((?v0 S13) (?v1 S13) (?v2 S21) (?v3 S3)) (=> (= (f45 (f46 f47 ?v0) ?v1) f1) (=> (= (f7 (f22 f44 (f31 ?v2 ?v1)) ?v3) f1) (=> (forall ((?v4 S13) (?v5 S13)) (=> (= (f45 (f46 f47 ?v4) ?v5) f1) (= (f7 (f22 f44 (f31 ?v2 ?v4)) (f31 ?v2 ?v5)) f1))) (= (f7 (f22 f44 (f31 ?v2 ?v0)) ?v3) f1))))))
(check-sat)
(exit)
